15,8	0,0	19,9	14,0	0,0	0,0	0,0	0,0	0,0	11,0
5,1	6,7	0,0	7,6	12,0	0,0	0,0	9,1	0,0	0,0
0,0	0,0	7,1	0,0	8,7	8,8	0,0	0,0	17,1	0,0
16,8	0,0	19,2	0,0	0,0	0,0	12,0	0,0	0,0	0,0
0,0	20,0	0,0	10,2	13,3	0,0	0,0	17,8	0,0	0,0
0,0	8,5	18,7	0,0	9,9	9,1	0,0	0,0	16,2	0,0
0,0	13,6	0,0	19,5	0,0	0,0	12,4	0,0	0,0	8,5
10,1	0,0	16,1	0,0	0,0	0,0	0,0	0,0	0,0	16,9
0,0	18,2	0,0	5,4	17,5	0,0	0,0	7,7	0,0	0,0
0,0	0,0	8,3	0,0	0,0	13,9	6,8	0,0	0,0	7,7
									
2,8	3,9	3,6	4,7	3,2	3,1	5,0	4,7	2,6	4,9
